c ind 1 2 3 4 5 6 7 8 9 10 11 12 13 14 15 16 17 18 19 20 21 22 23 24 25 26 27 28 29 30 31 32 33 34 35 36 37 38 39 40 41 42 43 44 45 46 47 48 49 50 51 52 53 54 55 56 57 58 59 60 61 62 63 64 65 66 67 68 69 70 71 72 73 74 75 76 77 78 79 80 81 82 83 84 85 86 87 88 89 90 91 92 93 94 95 96 97 98 99 100 101 102 103 104 105 106 107 108 109 110 111 112 113 114 115 116 117 118 119 120 0
p cnf 631 1550              
-5 128 0
-13 128 0
-41 128 0
-49 128 0
-1 -128 132 0
-132 136 0
-6 129 0
-14 129 0
-42 129 0
-50 129 0
-2 -129 133 0
-133 136 0
-7 130 0
-15 130 0
-43 130 0
-51 130 0
-3 -130 134 0
-134 136 0
-8 131 0
-16 131 0
-44 131 0
-52 131 0
-4 -131 135 0
-135 136 0
-136 -137 0
-2 -1 -121 0
121 -127 0
-1 122 0
-2 122 0
1 2 -122 0
-122 -3 -123 0
123 -127 0
-3 124 0
-122 124 0
3 122 -124 0
-124 -4 -125 0
125 -127 0
4 124 -126 0
126 -127 0
127 -137 0
-1 145 0
-9 145 0
-37 145 0
-45 145 0
-5 -145 149 0
-149 153 0
-2 146 0
-10 146 0
-38 146 0
-46 146 0
-6 -146 150 0
-150 153 0
-3 147 0
-11 147 0
-39 147 0
-47 147 0
-7 -147 151 0
-151 153 0
-4 148 0
-12 148 0
-40 148 0
-48 148 0
-8 -148 152 0
-152 153 0
-153 -154 0
-6 -5 -138 0
138 -144 0
-5 139 0
-6 139 0
5 6 -139 0
-139 -7 -140 0
140 -144 0
-7 141 0
-139 141 0
7 139 -141 0
-141 -8 -142 0
142 -144 0
8 141 -143 0
143 -144 0
144 -154 0
-5 162 0
-21 162 0
-29 162 0
-41 162 0
-57 162 0
-65 162 0
-9 -162 166 0
-166 170 0
-6 163 0
-22 163 0
-30 163 0
-42 163 0
-58 163 0
-66 163 0
-10 -163 167 0
-167 170 0
-7 164 0
-23 164 0
-31 164 0
-43 164 0
-59 164 0
-67 164 0
-11 -164 168 0
-168 170 0
-8 165 0
-24 165 0
-32 165 0
-44 165 0
-60 165 0
-68 165 0
-12 -165 169 0
-169 170 0
-170 -171 0
-10 -9 -155 0
155 -161 0
-9 156 0
-10 156 0
9 10 -156 0
-156 -11 -157 0
157 -161 0
-11 158 0
-156 158 0
11 156 -158 0
-158 -12 -159 0
159 -161 0
12 158 -160 0
160 -161 0
161 -171 0
-1 179 0
-17 179 0
-29 179 0
-37 179 0
-53 179 0
-65 179 0
-13 -179 183 0
-183 187 0
-2 180 0
-18 180 0
-30 180 0
-38 180 0
-54 180 0
-66 180 0
-14 -180 184 0
-184 187 0
-3 181 0
-19 181 0
-31 181 0
-39 181 0
-55 181 0
-67 181 0
-15 -181 185 0
-185 187 0
-4 182 0
-20 182 0
-32 182 0
-40 182 0
-56 182 0
-68 182 0
-16 -182 186 0
-186 187 0
-187 -188 0
-14 -13 -172 0
172 -178 0
-13 173 0
-14 173 0
13 14 -173 0
-173 -15 -174 0
174 -178 0
-15 175 0
-173 175 0
15 173 -175 0
-175 -16 -176 0
176 -178 0
16 175 -177 0
177 -178 0
178 -188 0
-13 196 0
-25 196 0
-33 196 0
-49 196 0
-61 196 0
-69 196 0
-17 -196 200 0
-200 204 0
-14 197 0
-26 197 0
-34 197 0
-50 197 0
-62 197 0
-70 197 0
-18 -197 201 0
-201 204 0
-15 198 0
-27 198 0
-35 198 0
-51 198 0
-63 198 0
-71 198 0
-19 -198 202 0
-202 204 0
-16 199 0
-28 199 0
-36 199 0
-52 199 0
-64 199 0
-72 199 0
-20 -199 203 0
-203 204 0
-204 -205 0
-18 -17 -189 0
189 -195 0
-17 190 0
-18 190 0
17 18 -190 0
-190 -19 -191 0
191 -195 0
-19 192 0
-190 192 0
19 190 -192 0
-192 -20 -193 0
193 -195 0
20 192 -194 0
194 -195 0
195 -205 0
-9 213 0
-25 213 0
-33 213 0
-45 213 0
-61 213 0
-69 213 0
-21 -213 217 0
-217 221 0
-10 214 0
-26 214 0
-34 214 0
-46 214 0
-62 214 0
-70 214 0
-22 -214 218 0
-218 221 0
-11 215 0
-27 215 0
-35 215 0
-47 215 0
-63 215 0
-71 215 0
-23 -215 219 0
-219 221 0
-12 216 0
-28 216 0
-36 216 0
-48 216 0
-64 216 0
-72 216 0
-24 -216 220 0
-220 221 0
-221 -222 0
-22 -21 -206 0
206 -212 0
-21 207 0
-22 207 0
21 22 -207 0
-207 -23 -208 0
208 -212 0
-23 209 0
-207 209 0
23 207 -209 0
-209 -24 -210 0
210 -212 0
24 209 -211 0
211 -212 0
212 -222 0
-17 230 0
-21 230 0
-29 230 0
-33 230 0
-53 230 0
-57 230 0
-65 230 0
-69 230 0
-25 -230 234 0
-234 238 0
-18 231 0
-22 231 0
-30 231 0
-34 231 0
-54 231 0
-58 231 0
-66 231 0
-70 231 0
-26 -231 235 0
-235 238 0
-19 232 0
-23 232 0
-31 232 0
-35 232 0
-55 232 0
-59 232 0
-67 232 0
-71 232 0
-27 -232 236 0
-236 238 0
-20 233 0
-24 233 0
-32 233 0
-36 233 0
-56 233 0
-60 233 0
-68 233 0
-72 233 0
-28 -233 237 0
-237 238 0
-238 -239 0
-26 -25 -223 0
223 -229 0
-25 224 0
-26 224 0
25 26 -224 0
-224 -27 -225 0
225 -229 0
-27 226 0
-224 226 0
27 224 -226 0
-226 -28 -227 0
227 -229 0
28 226 -228 0
228 -229 0
229 -239 0
-9 247 0
-13 247 0
-25 247 0
-33 247 0
-45 247 0
-49 247 0
-61 247 0
-69 247 0
-29 -247 251 0
-251 255 0
-10 248 0
-14 248 0
-26 248 0
-34 248 0
-46 248 0
-50 248 0
-62 248 0
-70 248 0
-30 -248 252 0
-252 255 0
-11 249 0
-15 249 0
-27 249 0
-35 249 0
-47 249 0
-51 249 0
-63 249 0
-71 249 0
-31 -249 253 0
-253 255 0
-12 250 0
-16 250 0
-28 250 0
-36 250 0
-48 250 0
-52 250 0
-64 250 0
-72 250 0
-32 -250 254 0
-254 255 0
-255 -256 0
-30 -29 -240 0
240 -246 0
-29 241 0
-30 241 0
29 30 -241 0
-241 -31 -242 0
242 -246 0
-31 243 0
-241 243 0
31 241 -243 0
-243 -32 -244 0
244 -246 0
32 243 -245 0
245 -246 0
246 -256 0
-17 264 0
-21 264 0
-25 264 0
-29 264 0
-53 264 0
-57 264 0
-61 264 0
-65 264 0
-33 -264 268 0
-268 272 0
-18 265 0
-22 265 0
-26 265 0
-30 265 0
-54 265 0
-58 265 0
-62 265 0
-66 265 0
-34 -265 269 0
-269 272 0
-19 266 0
-23 266 0
-27 266 0
-31 266 0
-55 266 0
-59 266 0
-63 266 0
-67 266 0
-35 -266 270 0
-270 272 0
-20 267 0
-24 267 0
-28 267 0
-32 267 0
-56 267 0
-60 267 0
-64 267 0
-68 267 0
-36 -267 271 0
-271 272 0
-272 -273 0
-34 -33 -257 0
257 -263 0
-33 258 0
-34 258 0
33 34 -258 0
-258 -35 -259 0
259 -263 0
-35 260 0
-258 260 0
35 258 -260 0
-260 -36 -261 0
261 -263 0
36 260 -262 0
262 -263 0
263 -273 0
-5 281 0
-13 281 0
-77 281 0
-85 281 0
-113 281 0
-37 -281 285 0
-285 289 0
-6 282 0
-14 282 0
-78 282 0
-86 282 0
-114 282 0
-38 -282 286 0
-286 289 0
-7 283 0
-15 283 0
-79 283 0
-87 283 0
-115 283 0
-39 -283 287 0
-287 289 0
-8 284 0
-16 284 0
-80 284 0
-88 284 0
-116 284 0
-40 -284 288 0
-288 289 0
-289 -290 0
-38 -37 -274 0
274 -280 0
-37 275 0
-38 275 0
37 38 -275 0
-275 -39 -276 0
276 -280 0
-39 277 0
-275 277 0
39 275 -277 0
-277 -40 -278 0
278 -280 0
40 277 -279 0
279 -280 0
280 -290 0
-1 298 0
-9 298 0
-73 298 0
-81 298 0
-113 298 0
-41 -298 302 0
-302 306 0
-2 299 0
-10 299 0
-74 299 0
-82 299 0
-114 299 0
-42 -299 303 0
-303 306 0
-3 300 0
-11 300 0
-75 300 0
-83 300 0
-115 300 0
-43 -300 304 0
-304 306 0
-4 301 0
-12 301 0
-76 301 0
-84 301 0
-116 301 0
-44 -301 305 0
-305 306 0
-306 -307 0
-42 -41 -291 0
291 -297 0
-41 292 0
-42 292 0
41 42 -292 0
-292 -43 -293 0
293 -297 0
-43 294 0
-292 294 0
43 292 -294 0
-294 -44 -295 0
295 -297 0
44 294 -296 0
296 -297 0
297 -307 0
-5 315 0
-21 315 0
-29 315 0
-77 315 0
-93 315 0
-101 315 0
-113 315 0
-45 -315 319 0
-319 323 0
-6 316 0
-22 316 0
-30 316 0
-78 316 0
-94 316 0
-102 316 0
-114 316 0
-46 -316 320 0
-320 323 0
-7 317 0
-23 317 0
-31 317 0
-79 317 0
-95 317 0
-103 317 0
-115 317 0
-47 -317 321 0
-321 323 0
-8 318 0
-24 318 0
-32 318 0
-80 318 0
-96 318 0
-104 318 0
-116 318 0
-48 -318 322 0
-322 323 0
-323 -324 0
-46 -45 -308 0
308 -314 0
-45 309 0
-46 309 0
45 46 -309 0
-309 -47 -310 0
310 -314 0
-47 311 0
-309 311 0
47 309 -311 0
-311 -48 -312 0
312 -314 0
48 311 -313 0
313 -314 0
314 -324 0
-1 332 0
-17 332 0
-29 332 0
-73 332 0
-89 332 0
-101 332 0
-113 332 0
-49 -332 336 0
-336 340 0
-2 333 0
-18 333 0
-30 333 0
-74 333 0
-90 333 0
-102 333 0
-114 333 0
-50 -333 337 0
-337 340 0
-3 334 0
-19 334 0
-31 334 0
-75 334 0
-91 334 0
-103 334 0
-115 334 0
-51 -334 338 0
-338 340 0
-4 335 0
-20 335 0
-32 335 0
-76 335 0
-92 335 0
-104 335 0
-116 335 0
-52 -335 339 0
-339 340 0
-340 -341 0
-50 -49 -325 0
325 -331 0
-49 326 0
-50 326 0
49 50 -326 0
-326 -51 -327 0
327 -331 0
-51 328 0
-326 328 0
51 326 -328 0
-328 -52 -329 0
329 -331 0
52 328 -330 0
330 -331 0
331 -341 0
-13 349 0
-25 349 0
-33 349 0
-85 349 0
-97 349 0
-105 349 0
-113 349 0
-53 -349 353 0
-353 357 0
-14 350 0
-26 350 0
-34 350 0
-86 350 0
-98 350 0
-106 350 0
-114 350 0
-54 -350 354 0
-354 357 0
-15 351 0
-27 351 0
-35 351 0
-87 351 0
-99 351 0
-107 351 0
-115 351 0
-55 -351 355 0
-355 357 0
-16 352 0
-28 352 0
-36 352 0
-88 352 0
-100 352 0
-108 352 0
-116 352 0
-56 -352 356 0
-356 357 0
-357 -358 0
-54 -53 -342 0
342 -348 0
-53 343 0
-54 343 0
53 54 -343 0
-343 -55 -344 0
344 -348 0
-55 345 0
-343 345 0
55 343 -345 0
-345 -56 -346 0
346 -348 0
56 345 -347 0
347 -348 0
348 -358 0
-9 366 0
-25 366 0
-33 366 0
-81 366 0
-97 366 0
-105 366 0
-113 366 0
-57 -366 370 0
-370 374 0
-10 367 0
-26 367 0
-34 367 0
-82 367 0
-98 367 0
-106 367 0
-114 367 0
-58 -367 371 0
-371 374 0
-11 368 0
-27 368 0
-35 368 0
-83 368 0
-99 368 0
-107 368 0
-115 368 0
-59 -368 372 0
-372 374 0
-12 369 0
-28 369 0
-36 369 0
-84 369 0
-100 369 0
-108 369 0
-116 369 0
-60 -369 373 0
-373 374 0
-374 -375 0
-58 -57 -359 0
359 -365 0
-57 360 0
-58 360 0
57 58 -360 0
-360 -59 -361 0
361 -365 0
-59 362 0
-360 362 0
59 360 -362 0
-362 -60 -363 0
363 -365 0
60 362 -364 0
364 -365 0
365 -375 0
-17 383 0
-21 383 0
-29 383 0
-33 383 0
-89 383 0
-93 383 0
-101 383 0
-105 383 0
-113 383 0
-61 -383 387 0
-387 391 0
-18 384 0
-22 384 0
-30 384 0
-34 384 0
-90 384 0
-94 384 0
-102 384 0
-106 384 0
-114 384 0
-62 -384 388 0
-388 391 0
-19 385 0
-23 385 0
-31 385 0
-35 385 0
-91 385 0
-95 385 0
-103 385 0
-107 385 0
-115 385 0
-63 -385 389 0
-389 391 0
-20 386 0
-24 386 0
-32 386 0
-36 386 0
-92 386 0
-96 386 0
-104 386 0
-108 386 0
-116 386 0
-64 -386 390 0
-390 391 0
-391 -392 0
-62 -61 -376 0
376 -382 0
-61 377 0
-62 377 0
61 62 -377 0
-377 -63 -378 0
378 -382 0
-63 379 0
-377 379 0
63 377 -379 0
-379 -64 -380 0
380 -382 0
64 379 -381 0
381 -382 0
382 -392 0
-9 400 0
-13 400 0
-25 400 0
-33 400 0
-81 400 0
-85 400 0
-97 400 0
-105 400 0
-113 400 0
-65 -400 404 0
-404 408 0
-10 401 0
-14 401 0
-26 401 0
-34 401 0
-82 401 0
-86 401 0
-98 401 0
-106 401 0
-114 401 0
-66 -401 405 0
-405 408 0
-11 402 0
-15 402 0
-27 402 0
-35 402 0
-83 402 0
-87 402 0
-99 402 0
-107 402 0
-115 402 0
-67 -402 406 0
-406 408 0
-12 403 0
-16 403 0
-28 403 0
-36 403 0
-84 403 0
-88 403 0
-100 403 0
-108 403 0
-116 403 0
-68 -403 407 0
-407 408 0
-408 -409 0
-66 -65 -393 0
393 -399 0
-65 394 0
-66 394 0
65 66 -394 0
-394 -67 -395 0
395 -399 0
-67 396 0
-394 396 0
67 394 -396 0
-396 -68 -397 0
397 -399 0
68 396 -398 0
398 -399 0
399 -409 0
-17 417 0
-21 417 0
-25 417 0
-29 417 0
-89 417 0
-93 417 0
-97 417 0
-101 417 0
-113 417 0
-69 -417 421 0
-421 425 0
-18 418 0
-22 418 0
-26 418 0
-30 418 0
-90 418 0
-94 418 0
-98 418 0
-102 418 0
-114 418 0
-70 -418 422 0
-422 425 0
-19 419 0
-23 419 0
-27 419 0
-31 419 0
-91 419 0
-95 419 0
-99 419 0
-103 419 0
-115 419 0
-71 -419 423 0
-423 425 0
-20 420 0
-24 420 0
-28 420 0
-32 420 0
-92 420 0
-96 420 0
-100 420 0
-104 420 0
-116 420 0
-72 -420 424 0
-424 425 0
-425 -426 0
-70 -69 -410 0
410 -416 0
-69 411 0
-70 411 0
69 70 -411 0
-411 -71 -412 0
412 -416 0
-71 413 0
-411 413 0
71 411 -413 0
-413 -72 -414 0
414 -416 0
72 413 -415 0
415 -416 0
416 -426 0
-41 434 0
-49 434 0
-109 434 0
-117 434 0
-73 -434 438 0
-438 442 0
-42 435 0
-50 435 0
-110 435 0
-118 435 0
-74 -435 439 0
-439 442 0
-43 436 0
-51 436 0
-111 436 0
-119 436 0
-75 -436 440 0
-440 442 0
-44 437 0
-52 437 0
-112 437 0
-120 437 0
-76 -437 441 0
-441 442 0
-442 -443 0
-74 -73 -427 0
427 -433 0
-73 428 0
-74 428 0
73 74 -428 0
-428 -75 -429 0
429 -433 0
-75 430 0
-428 430 0
75 428 -430 0
-430 -76 -431 0
431 -433 0
76 430 -432 0
432 -433 0
433 -443 0
-37 451 0
-45 451 0
-109 451 0
-117 451 0
-77 -451 455 0
-455 459 0
-38 452 0
-46 452 0
-110 452 0
-118 452 0
-78 -452 456 0
-456 459 0
-39 453 0
-47 453 0
-111 453 0
-119 453 0
-79 -453 457 0
-457 459 0
-40 454 0
-48 454 0
-112 454 0
-120 454 0
-80 -454 458 0
-458 459 0
-459 -460 0
-78 -77 -444 0
444 -450 0
-77 445 0
-78 445 0
77 78 -445 0
-445 -79 -446 0
446 -450 0
-79 447 0
-445 447 0
79 445 -447 0
-447 -80 -448 0
448 -450 0
80 447 -449 0
449 -450 0
450 -460 0
-41 468 0
-57 468 0
-65 468 0
-109 468 0
-117 468 0
-81 -468 472 0
-472 476 0
-42 469 0
-58 469 0
-66 469 0
-110 469 0
-118 469 0
-82 -469 473 0
-473 476 0
-43 470 0
-59 470 0
-67 470 0
-111 470 0
-119 470 0
-83 -470 474 0
-474 476 0
-44 471 0
-60 471 0
-68 471 0
-112 471 0
-120 471 0
-84 -471 475 0
-475 476 0
-476 -477 0
-82 -81 -461 0
461 -467 0
-81 462 0
-82 462 0
81 82 -462 0
-462 -83 -463 0
463 -467 0
-83 464 0
-462 464 0
83 462 -464 0
-464 -84 -465 0
465 -467 0
84 464 -466 0
466 -467 0
467 -477 0
-37 485 0
-53 485 0
-65 485 0
-109 485 0
-117 485 0
-85 -485 489 0
-489 493 0
-38 486 0
-54 486 0
-66 486 0
-110 486 0
-118 486 0
-86 -486 490 0
-490 493 0
-39 487 0
-55 487 0
-67 487 0
-111 487 0
-119 487 0
-87 -487 491 0
-491 493 0
-40 488 0
-56 488 0
-68 488 0
-112 488 0
-120 488 0
-88 -488 492 0
-492 493 0
-493 -494 0
-86 -85 -478 0
478 -484 0
-85 479 0
-86 479 0
85 86 -479 0
-479 -87 -480 0
480 -484 0
-87 481 0
-479 481 0
87 479 -481 0
-481 -88 -482 0
482 -484 0
88 481 -483 0
483 -484 0
484 -494 0
-49 502 0
-61 502 0
-69 502 0
-109 502 0
-117 502 0
-89 -502 506 0
-506 510 0
-50 503 0
-62 503 0
-70 503 0
-110 503 0
-118 503 0
-90 -503 507 0
-507 510 0
-51 504 0
-63 504 0
-71 504 0
-111 504 0
-119 504 0
-91 -504 508 0
-508 510 0
-52 505 0
-64 505 0
-72 505 0
-112 505 0
-120 505 0
-92 -505 509 0
-509 510 0
-510 -511 0
-90 -89 -495 0
495 -501 0
-89 496 0
-90 496 0
89 90 -496 0
-496 -91 -497 0
497 -501 0
-91 498 0
-496 498 0
91 496 -498 0
-498 -92 -499 0
499 -501 0
92 498 -500 0
500 -501 0
501 -511 0
-45 519 0
-61 519 0
-69 519 0
-109 519 0
-117 519 0
-93 -519 523 0
-523 527 0
-46 520 0
-62 520 0
-70 520 0
-110 520 0
-118 520 0
-94 -520 524 0
-524 527 0
-47 521 0
-63 521 0
-71 521 0
-111 521 0
-119 521 0
-95 -521 525 0
-525 527 0
-48 522 0
-64 522 0
-72 522 0
-112 522 0
-120 522 0
-96 -522 526 0
-526 527 0
-527 -528 0
-94 -93 -512 0
512 -518 0
-93 513 0
-94 513 0
93 94 -513 0
-513 -95 -514 0
514 -518 0
-95 515 0
-513 515 0
95 513 -515 0
-515 -96 -516 0
516 -518 0
96 515 -517 0
517 -518 0
518 -528 0
-53 536 0
-57 536 0
-65 536 0
-69 536 0
-109 536 0
-117 536 0
-97 -536 540 0
-540 544 0
-54 537 0
-58 537 0
-66 537 0
-70 537 0
-110 537 0
-118 537 0
-98 -537 541 0
-541 544 0
-55 538 0
-59 538 0
-67 538 0
-71 538 0
-111 538 0
-119 538 0
-99 -538 542 0
-542 544 0
-56 539 0
-60 539 0
-68 539 0
-72 539 0
-112 539 0
-120 539 0
-100 -539 543 0
-543 544 0
-544 -545 0
-98 -97 -529 0
529 -535 0
-97 530 0
-98 530 0
97 98 -530 0
-530 -99 -531 0
531 -535 0
-99 532 0
-530 532 0
99 530 -532 0
-532 -100 -533 0
533 -535 0
100 532 -534 0
534 -535 0
535 -545 0
-45 553 0
-49 553 0
-61 553 0
-69 553 0
-109 553 0
-117 553 0
-101 -553 557 0
-557 561 0
-46 554 0
-50 554 0
-62 554 0
-70 554 0
-110 554 0
-118 554 0
-102 -554 558 0
-558 561 0
-47 555 0
-51 555 0
-63 555 0
-71 555 0
-111 555 0
-119 555 0
-103 -555 559 0
-559 561 0
-48 556 0
-52 556 0
-64 556 0
-72 556 0
-112 556 0
-120 556 0
-104 -556 560 0
-560 561 0
-561 -562 0
-102 -101 -546 0
546 -552 0
-101 547 0
-102 547 0
101 102 -547 0
-547 -103 -548 0
548 -552 0
-103 549 0
-547 549 0
103 547 -549 0
-549 -104 -550 0
550 -552 0
104 549 -551 0
551 -552 0
552 -562 0
-53 570 0
-57 570 0
-61 570 0
-65 570 0
-109 570 0
-117 570 0
-105 -570 574 0
-574 578 0
-54 571 0
-58 571 0
-62 571 0
-66 571 0
-110 571 0
-118 571 0
-106 -571 575 0
-575 578 0
-55 572 0
-59 572 0
-63 572 0
-67 572 0
-111 572 0
-119 572 0
-107 -572 576 0
-576 578 0
-56 573 0
-60 573 0
-64 573 0
-68 573 0
-112 573 0
-120 573 0
-108 -573 577 0
-577 578 0
-578 -579 0
-106 -105 -563 0
563 -569 0
-105 564 0
-106 564 0
105 106 -564 0
-564 -107 -565 0
565 -569 0
-107 566 0
-564 566 0
107 564 -566 0
-566 -108 -567 0
567 -569 0
108 566 -568 0
568 -569 0
569 -579 0
-73 587 0
-77 587 0
-81 587 0
-85 587 0
-89 587 0
-93 587 0
-97 587 0
-101 587 0
-105 587 0
-113 587 0
-117 587 0
-109 -587 591 0
-591 595 0
-74 588 0
-78 588 0
-82 588 0
-86 588 0
-90 588 0
-94 588 0
-98 588 0
-102 588 0
-106 588 0
-114 588 0
-118 588 0
-110 -588 592 0
-592 595 0
-75 589 0
-79 589 0
-83 589 0
-87 589 0
-91 589 0
-95 589 0
-99 589 0
-103 589 0
-107 589 0
-115 589 0
-119 589 0
-111 -589 593 0
-593 595 0
-76 590 0
-80 590 0
-84 590 0
-88 590 0
-92 590 0
-96 590 0
-100 590 0
-104 590 0
-108 590 0
-116 590 0
-120 590 0
-112 -590 594 0
-594 595 0
-595 -596 0
-110 -109 -580 0
580 -586 0
-109 581 0
-110 581 0
109 110 -581 0
-581 -111 -582 0
582 -586 0
-111 583 0
-581 583 0
111 581 -583 0
-583 -112 -584 0
584 -586 0
112 583 -585 0
585 -586 0
586 -596 0
-37 604 0
-41 604 0
-45 604 0
-49 604 0
-53 604 0
-57 604 0
-61 604 0
-65 604 0
-69 604 0
-109 604 0
-117 604 0
-113 -604 608 0
-608 612 0
-38 605 0
-42 605 0
-46 605 0
-50 605 0
-54 605 0
-58 605 0
-62 605 0
-66 605 0
-70 605 0
-110 605 0
-118 605 0
-114 -605 609 0
-609 612 0
-39 606 0
-43 606 0
-47 606 0
-51 606 0
-55 606 0
-59 606 0
-63 606 0
-67 606 0
-71 606 0
-111 606 0
-119 606 0
-115 -606 610 0
-610 612 0
-40 607 0
-44 607 0
-48 607 0
-52 607 0
-56 607 0
-60 607 0
-64 607 0
-68 607 0
-72 607 0
-112 607 0
-120 607 0
-116 -607 611 0
-611 612 0
-612 -613 0
-114 -113 -597 0
597 -603 0
-113 598 0
-114 598 0
113 114 -598 0
-598 -115 -599 0
599 -603 0
-115 600 0
-598 600 0
115 598 -600 0
-600 -116 -601 0
601 -603 0
116 600 -602 0
602 -603 0
603 -613 0
-73 621 0
-77 621 0
-81 621 0
-85 621 0
-89 621 0
-93 621 0
-97 621 0
-101 621 0
-105 621 0
-109 621 0
-113 621 0
-117 -621 625 0
-625 629 0
-74 622 0
-78 622 0
-82 622 0
-86 622 0
-90 622 0
-94 622 0
-98 622 0
-102 622 0
-106 622 0
-110 622 0
-114 622 0
-118 -622 626 0
-626 629 0
-75 623 0
-79 623 0
-83 623 0
-87 623 0
-91 623 0
-95 623 0
-99 623 0
-103 623 0
-107 623 0
-111 623 0
-115 623 0
-119 -623 627 0
-627 629 0
-76 624 0
-80 624 0
-84 624 0
-88 624 0
-92 624 0
-96 624 0
-100 624 0
-104 624 0
-108 624 0
-112 624 0
-116 624 0
-120 -624 628 0
-628 629 0
-629 -630 0
-118 -117 -614 0
614 -620 0
-117 615 0
-118 615 0
117 118 -615 0
-615 -119 -616 0
616 -620 0
-119 617 0
-615 617 0
119 615 -617 0
-617 -120 -618 0
618 -620 0
120 617 -619 0
619 -620 0
620 -630 0
137 0
154 0
171 0
188 0
205 0
222 0
239 0
256 0
273 0
290 0
307 0
324 0
341 0
358 0
375 0
392 0
409 0
426 0
443 0
460 0
477 0
494 0
511 0
528 0
545 0
562 0
579 0
596 0
613 0
630 0
